p cnf 12 50 
7 -4 3 0
-8 -6 -5 0
-12 -10 -8 0
11 -10 -4 0
4 -2 -3 0
-1 -5 -10 0
-10 1 -5 0
-4 7 -5 0
-5 12 -9 0
9 -11 4 0
2 1 -11 0
7 3 -2 0
2 -12 -4 0
4 -1 2 0
2 -8 -3 0
10 -7 4 0
9 11 4 0
-8 12 1 0
-5 -1 6 0
9 -8 10 0
-8 -5 -4 0
-5 8 6 0
12 -11 7 0
7 -2 6 0
1 5 -6 0
-5 6 11 0
-3 1 8 0
-12 11 9 0
-12 -3 -1 0
-3 2 12 0
-8 12 -7 0
-12 -9 8 0
-10 4 2 0
-11 6 12 0
-1 -3 12 0
-5 11 -9 0
1 -12 5 0
-12 -6 -7 0
4 -3 10 0
-4 -2 -7 0
4 -6 -12 0
8 5 1 0
-12 -9 -8 0
-10 7 -1 0
11 6 -3 0
11 1 -4 0
1 -5 -9 0
-5 -7 -9 0
-4 -12 -2 0
7 -10 2 0
